c Generated map
c Size: 10 * 10, weights in range: 1 to 10, walls: True, with ratio 0.05
c dim 6 of 6
c
p sp 100 161
c graph contains 100 nodes and 161 arcs
c
a 1 11 6
a 11 1 6
a 1 2 5
a 2 1 5
a 2 3 10
a 3 2 10
a 3 13 1
a 13 3 1
a 3 4 7
a 4 3 7
a 4 14 9
a 14 4 9
a 4 5 4
a 5 4 4
a 5 15 5
a 15 5 5
a 5 6 5
a 6 5 5
a 6 16 5
a 16 6 5
a 6 7 7
a 7 6 7
a 7 17 9
a 17 7 9
a 7 8 10
a 8 7 10
a 8 18 10
a 18 8 10
a 8 9 6
a 9 8 6
a 9 19 7
a 19 9 7
a 9 10 2
a 10 9 2
a 10 20 2
a 20 10 2
a 11 21 10
a 21 11 10
a 13 23 6
a 23 13 6
a 13 14 6
a 14 13 6
a 14 24 6
a 24 14 6
a 14 15 9
a 15 14 9
a 15 25 4
a 25 15 4
a 15 16 5
a 16 15 5
a 16 26 1
a 26 16 1
a 16 17 5
a 17 16 5
a 17 27 8
a 27 17 8
a 17 18 4
a 18 17 4
a 18 28 10
a 28 18 10
a 18 19 3
a 19 18 3
a 19 29 7
a 29 19 7
a 19 20 6
a 20 19 6
a 20 30 6
a 30 20 6
a 21 31 7
a 31 21 7
a 21 22 6
a 22 21 6
a 22 32 2
a 32 22 2
a 22 23 10
a 23 22 10
a 23 33 10
a 33 23 10
a 23 24 4
a 24 23 4
a 24 34 5
a 34 24 5
a 24 25 7
a 25 24 7
a 25 35 7
a 35 25 7
a 25 26 3
a 26 25 3
a 26 36 8
a 36 26 8
a 26 27 9
a 27 26 9
a 27 37 4
a 37 27 4
a 27 28 10
a 28 27 10
a 28 38 8
a 38 28 8
a 28 29 7
a 29 28 7
a 29 39 1
a 39 29 1
a 29 30 6
a 30 29 6
a 30 40 5
a 40 30 5
a 31 41 1
a 41 31 1
a 31 32 5
a 32 31 5
a 32 42 9
a 42 32 9
a 32 33 7
a 33 32 7
a 33 43 3
a 43 33 3
a 33 34 10
a 34 33 10
a 34 44 8
a 44 34 8
a 34 35 1
a 35 34 1
a 35 45 10
a 45 35 10
a 35 36 3
a 36 35 3
a 36 37 9
a 37 36 9
a 37 47 3
a 47 37 3
a 37 38 6
a 38 37 6
a 38 48 2
a 48 38 2
a 38 39 9
a 39 38 9
a 39 49 3
a 49 39 3
a 39 40 7
a 40 39 7
a 40 50 9
a 50 40 9
a 41 51 4
a 51 41 4
a 41 42 4
a 42 41 4
a 42 52 1
a 52 42 1
a 42 43 5
a 43 42 5
a 43 53 10
a 53 43 10
a 43 44 2
a 44 43 2
a 44 54 4
a 54 44 4
a 44 45 1
a 45 44 1
a 45 55 1
a 55 45 1
a 47 57 10
a 57 47 10
a 47 48 3
a 48 47 3
a 48 58 1
a 58 48 1
a 48 49 7
a 49 48 7
a 49 59 3
a 59 49 3
a 49 50 6
a 50 49 6
a 50 60 10
a 60 50 10
a 51 61 1
a 61 51 1
a 51 52 10
a 52 51 10
a 52 62 2
a 62 52 2
a 52 53 5
a 53 52 5
a 53 63 10
a 63 53 10
a 53 54 7
a 54 53 7
a 54 64 1
a 64 54 1
a 54 55 4
a 55 54 4
a 55 65 10
a 65 55 10
a 55 56 2
a 56 55 2
a 56 66 2
a 66 56 2
a 56 57 8
a 57 56 8
a 57 67 7
a 67 57 7
a 57 58 4
a 58 57 4
a 58 68 9
a 68 58 9
a 58 59 10
a 59 58 10
a 59 69 1
a 69 59 1
a 59 60 10
a 60 59 10
a 60 70 7
a 70 60 7
a 61 71 4
a 71 61 4
a 61 62 2
a 62 61 2
a 62 72 7
a 72 62 7
a 62 63 7
a 63 62 7
a 63 73 7
a 73 63 7
a 63 64 4
a 64 63 4
a 64 74 4
a 74 64 4
a 64 65 5
a 65 64 5
a 65 75 10
a 75 65 10
a 65 66 7
a 66 65 7
a 66 76 9
a 76 66 9
a 66 67 2
a 67 66 2
a 67 77 6
a 77 67 6
a 67 68 5
a 68 67 5
a 68 78 9
a 78 68 9
a 68 69 10
a 69 68 10
a 69 79 3
a 79 69 3
a 69 70 10
a 70 69 10
a 70 80 4
a 80 70 4
a 71 81 7
a 81 71 7
a 71 72 6
a 72 71 6
a 72 82 1
a 82 72 1
a 72 73 2
a 73 72 2
a 73 74 10
a 74 73 10
a 74 84 9
a 84 74 9
a 74 75 1
a 75 74 1
a 75 76 2
a 76 75 2
a 76 86 9
a 86 76 9
a 76 77 2
a 77 76 2
a 77 87 9
a 87 77 9
a 77 78 5
a 78 77 5
a 78 88 6
a 88 78 6
a 78 79 5
a 79 78 5
a 79 89 1
a 89 79 1
a 79 80 10
a 80 79 10
a 80 90 9
a 90 80 9
a 81 91 9
a 91 81 9
a 81 82 6
a 82 81 6
a 82 92 4
a 92 82 4
a 86 96 8
a 96 86 8
a 86 87 1
a 87 86 1
a 87 97 4
a 97 87 4
a 87 88 7
a 88 87 7
a 88 98 1
a 98 88 1
a 88 89 7
a 89 88 7
a 89 99 8
a 99 89 8
a 89 90 9
a 90 89 9
a 90 100 8
a 100 90 8
a 91 92 2
a 92 91 2
a 92 93 7
a 93 92 7
a 95 96 5
a 96 95 5
a 96 97 8
a 97 96 8
a 97 98 1
a 98 97 1
a 98 99 7
a 99 98 7
a 99 100 7
a 100 99 7
